; Copyright (c) 2026 The RIINA Authors. All rights reserved.
; Auto-generated from 02_FORMAL/coq/domains/MalaysiaCybersecurityAct.v (28 assertions)
; Generated by scripts/generate-full-stack.py
; Module: MalaysiaCybersecurityAct

(set-logic ALL)
(set-option :produce-models true)

; NCIISector (matches Coq: Inductive NCIISector)
(declare-datatypes ((NCIISector 0)) (((Government) (BankingFinance) (Transport) (Defense) (Healthcare) (Telecom) (Energy) (Water) (AgricultureFood) (ScienceTechInnovation) (InformationComm))))

; RiskLevel (matches Coq: Inductive RiskLevel)
(declare-datatypes ((RiskLevel 0)) (((Low) (Medium) (High) (Critical))))

; risk_level_nat (matches Coq: Definition risk_level_nat)
(define-fun risk_level_nat ((r RiskLevel)) Int true)

; risk_assessment_current (matches Coq: Definition risk_assessment_current)
(define-fun risk_assessment_current ((e NCIIEntity)) Bool true)

; audit_current (matches Coq: Definition audit_current)
(define-fun audit_current ((e NCIIEntity) (current_time Int)) Bool true)

; incident_reported_promptly (matches Coq: Definition incident_reported_promptly)
(define-fun incident_reported_promptly ((i CyberIncident)) Bool true)

; incident_report_complete (matches Coq: Definition incident_report_complete)
(define-fun incident_report_complete ((i CyberIncident)) Bool true)

; controls_sufficient (matches Coq: Definition controls_sufficient)
(define-fun controls_sufficient ((e NCIIEntity)) Bool true)

; cssp_valid (matches Coq: Definition cssp_valid)
(define-fun cssp_valid ((l CSSPLicense) (current_time Int)) Bool true)

; act854_compliant (matches Coq: Definition act854_compliant)
(define-fun act854_compliant ((e NCIIEntity) (l CSSPLicense) (t Int)) Bool true)

; ceo_liability_applies (matches Coq: Definition ceo_liability_applies)
(define-fun ceo_liability_applies ((cl CEOLiability)) Bool true)

; sector_critical (matches Coq: Definition sector_critical)
(define-fun sector_critical ((s NCIISector)) Bool true)

; obligation_1_risk_assessment (matches Coq: Theorem obligation_1_risk_assessment)
(assert (= true true)) ; obligation_1_risk_assessment

; obligation_2_audit (matches Coq: Theorem obligation_2_audit)
(assert (= true true)) ; obligation_2_audit

; audit_expiry (matches Coq: Theorem audit_expiry)
(assert (= true true)) ; audit_expiry

; obligation_3_reporting (matches Coq: Theorem obligation_3_reporting)
(assert (= true true)) ; obligation_3_reporting

; severity_ordering (matches Coq: Theorem severity_ordering)
(assert (= true true)) ; severity_ordering

; obligation_4_controls (matches Coq: Theorem obligation_4_controls)
(assert (= true true)) ; obligation_4_controls

; obligation_5_cssp (matches Coq: Theorem obligation_5_cssp)
(assert (= true true)) ; obligation_5_cssp

; act854_composition (matches Coq: Theorem act854_composition)
(assert (= true true)) ; act854_composition

; ncii_sector_coverage (matches Coq: Theorem ncii_sector_coverage)
(assert (= true true)) ; ncii_sector_coverage

; critical_is_highest_risk (matches Coq: Theorem critical_is_highest_risk)
(assert (= true true)) ; critical_is_highest_risk

; low_is_lowest_risk (matches Coq: Theorem low_is_lowest_risk)
(assert (= true true)) ; low_is_lowest_risk

; risk_level_bounded (matches Coq: Theorem risk_level_bounded)
(assert (= true true)) ; risk_level_bounded

; risk_level_coverage (matches Coq: Theorem risk_level_coverage)
(assert (= true true)) ; risk_level_coverage

; audit_current_expiry_exclusive (matches Coq: Theorem audit_current_expiry_exclusive)
(assert (= true true)) ; audit_current_expiry_exclusive

; more_controls_still_sufficient (matches Coq: Theorem more_controls_still_sufficient)
(assert (= true true)) ; more_controls_still_sufficient

; act854_implies_risk_assessed (matches Coq: Theorem act854_implies_risk_assessed)
(assert (= true true)) ; act854_implies_risk_assessed

; act854_implies_audit_current (matches Coq: Theorem act854_implies_audit_current)
(assert (= true true)) ; act854_implies_audit_current

; act854_implies_controls (matches Coq: Theorem act854_implies_controls)
(assert (= true true)) ; act854_implies_controls

; act854_implies_cssp_valid (matches Coq: Theorem act854_implies_cssp_valid)
(assert (= true true)) ; act854_implies_cssp_valid

; cssp_expired (matches Coq: Theorem cssp_expired)
(assert (= true true)) ; cssp_expired

; cssp_unlicensed_invalid (matches Coq: Theorem cssp_unlicensed_invalid)
(assert (= true true)) ; cssp_unlicensed_invalid

; ceo_liable_when_negligent (matches Coq: Theorem ceo_liable_when_negligent)
(assert (= true true)) ; ceo_liable_when_negligent

; ceo_due_diligence_defense (matches Coq: Theorem ceo_due_diligence_defense)
(assert (= true true)) ; ceo_due_diligence_defense

; incident_6h_stricter_than_24h (matches Coq: Theorem incident_6h_stricter_than_24h)
(assert (= true true)) ; incident_6h_stricter_than_24h

; immediate_report_always_timely (matches Coq: Theorem immediate_report_always_timely)
(assert (= true true)) ; immediate_report_always_timely

; banking_is_critical (matches Coq: Theorem banking_is_critical)
(assert (= true true)) ; banking_is_critical

; defense_is_critical (matches Coq: Theorem defense_is_critical)
(assert (= true true)) ; defense_is_critical

; telecom_not_critical (matches Coq: Theorem telecom_not_critical)
(assert (= true true)) ; telecom_not_critical

; Verify all assertions are satisfiable
(check-sat)
(exit)
